predicate fzn_all_different_int(array [int] of var int: x);
array [1..11] of int: X_INTRODUCED_121_ = [1,-1,-1,-1,-1,-1,-1,-1,-1,-1,-1];
var 0..1: X_INTRODUCED_20_;
var 0..1: X_INTRODUCED_21_;
var 0..1: X_INTRODUCED_30_;
var 0..1: X_INTRODUCED_31_;
var 0..1: X_INTRODUCED_40_;
var 0..1: X_INTRODUCED_41_;
var 0..1: X_INTRODUCED_42_;
var 0..1: X_INTRODUCED_43_;
var 0..1: X_INTRODUCED_50_;
var 0..1: X_INTRODUCED_51_;
var 0..1: X_INTRODUCED_52_;
var 0..1: X_INTRODUCED_53_;
var 0..1: X_INTRODUCED_60_;
var 0..1: X_INTRODUCED_61_;
var 0..1: X_INTRODUCED_62_;
var 0..1: X_INTRODUCED_63_;
var 0..1: X_INTRODUCED_64_;
var 0..1: X_INTRODUCED_65_;
var 0..1: X_INTRODUCED_70_;
var 0..1: X_INTRODUCED_71_;
var 0..1: X_INTRODUCED_72_;
var 0..1: X_INTRODUCED_73_;
var 0..1: X_INTRODUCED_74_;
var 0..1: X_INTRODUCED_75_;
var 0..1: X_INTRODUCED_80_;
var 0..1: X_INTRODUCED_81_;
var 0..1: X_INTRODUCED_82_;
var 0..1: X_INTRODUCED_83_;
var 0..1: X_INTRODUCED_84_;
var 0..1: X_INTRODUCED_85_;
var 0..1: X_INTRODUCED_86_;
var 0..1: X_INTRODUCED_87_;
var 0..1: X_INTRODUCED_90_;
var 0..1: X_INTRODUCED_91_;
var 0..1: X_INTRODUCED_92_;
var 0..1: X_INTRODUCED_93_;
var 0..1: X_INTRODUCED_94_;
var 0..1: X_INTRODUCED_95_;
var 0..1: X_INTRODUCED_96_;
var 0..1: X_INTRODUCED_97_;
var 0..8: halmosWife:: output_var:: is_defined_var;
var 0..8: X_INTRODUCED_101_ ::var_is_introduced :: is_defined_var;
var 0..8: X_INTRODUCED_103_ ::var_is_introduced :: is_defined_var;
var 0..8: X_INTRODUCED_105_ ::var_is_introduced :: is_defined_var;
var 0..8: X_INTRODUCED_107_ ::var_is_introduced :: is_defined_var;
var 0..8: X_INTRODUCED_109_ ::var_is_introduced :: is_defined_var;
var 0..8: X_INTRODUCED_111_ ::var_is_introduced :: is_defined_var;
var 0..8: X_INTRODUCED_113_ ::var_is_introduced :: is_defined_var;
var 0..8: X_INTRODUCED_115_ ::var_is_introduced :: is_defined_var;
var 0..8: X_INTRODUCED_117_ ::var_is_introduced :: is_defined_var;
array [1..9] of var int: X_INTRODUCED_118_ ::var_is_introduced  = [X_INTRODUCED_101_,X_INTRODUCED_103_,X_INTRODUCED_105_,X_INTRODUCED_107_,X_INTRODUCED_109_,X_INTRODUCED_111_,X_INTRODUCED_113_,X_INTRODUCED_115_,X_INTRODUCED_117_];
array [1..11] of var int: X_INTRODUCED_120_ ::var_is_introduced  = [halmosWife,0,0,X_INTRODUCED_21_,X_INTRODUCED_31_,X_INTRODUCED_41_,X_INTRODUCED_51_,X_INTRODUCED_61_,X_INTRODUCED_71_,X_INTRODUCED_81_,X_INTRODUCED_91_];
constraint fzn_all_different_int(X_INTRODUCED_118_);
constraint int_lin_eq(X_INTRODUCED_121_,X_INTRODUCED_120_,0):: defines_var(halmosWife);
constraint int_lin_eq([1,1,1,1,1,1,1,1,-1],[X_INTRODUCED_21_,X_INTRODUCED_31_,X_INTRODUCED_41_,X_INTRODUCED_51_,X_INTRODUCED_61_,X_INTRODUCED_71_,X_INTRODUCED_81_,X_INTRODUCED_91_,X_INTRODUCED_101_],0):: defines_var(X_INTRODUCED_101_);
constraint int_lin_eq([1,1,1,1,1,1,1,1,-1],[X_INTRODUCED_20_,X_INTRODUCED_21_,X_INTRODUCED_42_,X_INTRODUCED_52_,X_INTRODUCED_62_,X_INTRODUCED_72_,X_INTRODUCED_82_,X_INTRODUCED_92_,X_INTRODUCED_103_],0):: defines_var(X_INTRODUCED_103_);
constraint int_lin_eq([1,1,1,1,1,1,1,1,-1],[X_INTRODUCED_30_,X_INTRODUCED_31_,X_INTRODUCED_43_,X_INTRODUCED_53_,X_INTRODUCED_63_,X_INTRODUCED_73_,X_INTRODUCED_83_,X_INTRODUCED_93_,X_INTRODUCED_105_],0):: defines_var(X_INTRODUCED_105_);
constraint int_lin_eq([1,1,1,1,1,1,1,1,-1],[X_INTRODUCED_40_,X_INTRODUCED_41_,X_INTRODUCED_42_,X_INTRODUCED_43_,X_INTRODUCED_64_,X_INTRODUCED_74_,X_INTRODUCED_84_,X_INTRODUCED_94_,X_INTRODUCED_107_],0):: defines_var(X_INTRODUCED_107_);
constraint int_lin_eq([1,1,1,1,1,1,1,1,-1],[X_INTRODUCED_50_,X_INTRODUCED_51_,X_INTRODUCED_52_,X_INTRODUCED_53_,X_INTRODUCED_65_,X_INTRODUCED_75_,X_INTRODUCED_85_,X_INTRODUCED_95_,X_INTRODUCED_109_],0):: defines_var(X_INTRODUCED_109_);
constraint int_lin_eq([1,1,1,1,1,1,1,1,-1],[X_INTRODUCED_60_,X_INTRODUCED_61_,X_INTRODUCED_62_,X_INTRODUCED_63_,X_INTRODUCED_64_,X_INTRODUCED_65_,X_INTRODUCED_86_,X_INTRODUCED_96_,X_INTRODUCED_111_],0):: defines_var(X_INTRODUCED_111_);
constraint int_lin_eq([1,1,1,1,1,1,1,1,-1],[X_INTRODUCED_70_,X_INTRODUCED_71_,X_INTRODUCED_72_,X_INTRODUCED_73_,X_INTRODUCED_74_,X_INTRODUCED_75_,X_INTRODUCED_87_,X_INTRODUCED_97_,X_INTRODUCED_113_],0):: defines_var(X_INTRODUCED_113_);
constraint int_lin_eq([1,1,1,1,1,1,1,1,-1],[X_INTRODUCED_80_,X_INTRODUCED_81_,X_INTRODUCED_82_,X_INTRODUCED_83_,X_INTRODUCED_84_,X_INTRODUCED_85_,X_INTRODUCED_86_,X_INTRODUCED_87_,X_INTRODUCED_115_],0):: defines_var(X_INTRODUCED_115_);
constraint int_lin_eq([1,1,1,1,1,1,1,1,-1],[X_INTRODUCED_90_,X_INTRODUCED_91_,X_INTRODUCED_92_,X_INTRODUCED_93_,X_INTRODUCED_94_,X_INTRODUCED_95_,X_INTRODUCED_96_,X_INTRODUCED_97_,X_INTRODUCED_117_],0):: defines_var(X_INTRODUCED_117_);
solve  satisfy;
